InboundTrucks  = 10;
OutboundTrucks = 10;
InboundDoors   = 4;
OutboundDoors  = 4;
ReleaseTime    = [17,72,108,102,97,8,32,15,63,97];
UnloadTime     = [8,13,17,20,35,24,14,5,32,35];
LoadTime       = [18,24,5,16,21,17,9,19,13,21];
TransferTime   = [| 3,0,0,6,0,0,1,0,0,6 | 0,2,0,0,2,0,7,0,0,0 | 0,0,0,9,0,4,0,0,1,0 | 0,0,0,0,7,0,6,0,0,2 | 0,0,0,0,0,0,0,1,0,0 | 0,6,0,0,0,2,0,0,1,0 | 0,0,0,0,0,5,6,0,0,0 | 0,0,0,0,0,0,0,0,0,0 | 0,0,5,0,0,0,0,0,2,6 | 0,0,0,1,0,0,5,0,0,0 |];
